NAME : ar9152
COMMENT : 9152 locations in Argentina
COMMENT : Derived from National Imagery and Mapping Agency data
TYPE : TSP
DIMENSION : 9152
EDGE_WEIGHT_TYPE : EUC_2D
NODE_COORD_SECTION
1 0 0
2 0 900
3 0 1000
4 888 0
EOF
